/*********************************************
    * Lab01 - simple
    * Author: Coso
    * Creation Date: Mar, 2019
    *********************************************/
instance_name = "small_instance_06_simple";

d = 2;
r = 3;

SCj = [102 105];
Dk = [22 35 92];

Cjk = [[78 74 80]
 [79 55 58]];
